c ---- [ banner ] ------------------------------------------------------------
c
c Kissat SAT Solver
c 
c Copyright (c) 2021-2024 Armin Biere University of Freiburg
c Copyright (c) 2019-2021 Armin Biere Johannes Kepler University Linz
c 
c Version 4.0.1 43f02cf3e992cb44653b35e5cb26f93281552ae0
c gcc (Ubuntu 13.2.0-23ubuntu4) 13.2.0 -W -Wall -O3 -DNDEBUG
c Thu Sep 12 12:27:46 CEST 2024 Linux abryzen9 6.8.0-41-generic x86_64
c
c ---- [ parsing ] -----------------------------------------------------------
c
c opened and reading DIMACS file:
c
c   /data/artifact/AMulet2.0_artifact/exp4/cnf_sopb_64/64_64_U2_DT_BK_Multgen_sopb.cnf
c
c parsed 'p cnf 27388 126369' header
c closing input after reading 2542606 bytes (2 MB)
c finished parsing after 0.02 seconds
c
c ---- [ options ] -----------------------------------------------------------
c
c --stable=0                       (different from default '1')
c
c ---- [ solving ] -----------------------------------------------------------
c
c  seconds switched rate     size/glue tier1  binary          remaining
c         MB reductions conflicts size  tier2    irredundant
c          level restarts redundant glue  trail          variables
c
c *  0.02 10 0 0 0  0 0   0   0 0.0 0 0 0 0 0% 3656 122711 27385 100%
c (  0.03 12 0 0 0  0 0   0   0 0.0 0 0 0 0 0% 3656 122711 27385 100%
c .  0.04 13 0 0 0  0 0   0   0 0.0 0 0 0 0 0% 3652 122711 27385 100%
c c  0.09 17 0 0 0  0 0   0   0 0.0 0 0 0 0 0% 4153 121756 27145 99%
c d  0.09 17 0 0 0  0 0   0   0 0.0 0 0 0 0 0% 3671 121756 27145 99%
c =  0.13 17 0 0 0  0 0   0   0 0.0 0 0 0 0 0% 3763 121756 27098 99%
c d  0.14 17 0 0 0  0 0   0   0 0.0 0 0 0 0 0% 3669 121756 27098 99%
c f  0.25 16 0 0 0  0 0   0   0 0.0 0 0 0 0 0% 10723 111128 30655 112%
c e  0.49 23 0 0 0  0 0   0   0 0.0 0 0 0 0 0% 2427 122031 20630 75%
c )  0.49 23 0 0 0  0 0   0   0 0.0 0 0 0 0 0% 2427 122031 20630 75%
c {  0.51 24 0 0 0  0 0   0   0 0.0 0 0 2 6 0% 2427 122031 20630 75%
c -  0.67 24 124 0 1 189 28 1001 759 2.2 10 5 3 8 13% 2457 122031 20630 75%
c -  0.84 24 136 0 2 282 27 2001 1564 2.1 10 5 3 9 18% 2465 122031 20630 75%
c c  1.09 22 197 0 2 372 38 2505 2051 2.6 13 5 3 9 21% 2486 121983 20623 75%
c d  1.10 22 197 0 2 372 38 2505 2048 2.6 13 5 3 9 21% 2472 121983 20623 75%
c u  1.11 22 197 0 2 372 38 2505 1743 2.6 13 5 3 9 21% 2475 121983 20623 75%
c v  1.13 22 197 0 2 372 38 2505 1499 2.6 13 5 3 9 21% 2475 121983 20623 75%
c w  1.16 23 197 0 2 372 38 2505 1499 2.6 13 5 3 9 21% 2475 121983 20623 75%
c x  1.18 23 197 0 2 372 38 2505 1499 2.6 13 5 3 9 21% 2475 121949 20623 75%
c =  1.24 23 197 0 2 372 38 2505 1499 2.6 13 5 3 9 21% 2519 121949 20601 75%
c
c  seconds   switched   rate       size/glue tier1    binary          remaining
c         MB  reductions conflicts       size  tier2     irredundant
c           level restarts    redundant    glue   trail          variables
c
c d  1.25 23 197 0 2 372 38 2505 1499 2.6 13 5 3 9 21% 2473 121949 20601 75%
c t  1.26 23 197 0 2 372 38 2505 1499 2.6 13 5 3 9 21% 2447 121949 20601 75%
c f  1.27 23 197 0 2 372 38 2505 1499 2.6 13 5 3 9 21% 2678 121545 20724 76%
c u  1.29 23 197 0 2 372 38 2505 1470 2.6 13 5 3 9 21% 2678 121545 20724 76%
c v  1.30 23 197 0 2 372 38 2505 1418 2.6 13 5 3 9 21% 2678 121545 20724 76%
c w  1.33 23 197 0 2 372 38 2505 1405 2.6 13 5 3 9 21% 2678 121545 20724 76%
c x  1.34 23 197 0 2 372 38 2505 1405 2.6 13 5 3 9 21% 2678 121524 20724 76%
c =  1.39 23 197 0 2 372 38 2505 1405 2.6 13 5 3 9 21% 2978 121524 20574 75%
c d  1.40 23 197 0 2 372 38 2505 1404 2.6 13 5 3 9 21% 2582 121524 20574 75%
c f  1.42 23 197 0 2 372 38 2505 1404 2.6 13 5 3 9 21% 2756 121256 20662 75%
c -  1.62 23 294 0 3 501 41 3415 2028 2.7 13 5 3 9 22% 2768 121256 20662 75%
c -  2.04 24 275 0 4 783 43 5147 3209 3.2 17 5 3 9 22% 2813 121256 20662 75%
c -  2.65 24 298 0 5 1052 46 7149 4427 3.7 20 6 2 9 24% 2836 121256 20662 75%
c c  2.85 24 295 0 5 1089 45 7715 4942 3.6 20 6 2 9 24% 2844 121222 20655 75%
c d  2.85 24 295 0 5 1089 45 7715 4942 3.6 20 6 2 9 24% 2825 121222 20652 75%
c u  2.89 24 295 0 5 1089 45 7715 4636 3.6 20 6 2 9 24% 2827 121222 20652 75%
c v  2.93 24 295 0 5 1089 45 7715 3851 3.6 20 6 2 9 24% 2828 121222 20652 75%
c w  2.95 24 295 0 5 1089 45 7715 3834 3.6 20 6 2 9 24% 2828 121222 20652 75%
c =  3.12 24 295 0 5 1089 45 7715 3834 3.6 20 6 2 9 24% 2998 121222 20567 75%
c d  3.13 24 295 0 5 1089 45 7715 3829 3.6 20 6 2 9 24% 2817 121222 20566 75%
c
c  seconds   switched    rate       size/glue tier1    binary          remaining
c         MB  reductions  conflicts       size  tier2     irredundant
c           level  restarts    redundant    glue   trail          variables
c
c f  3.20 24 295 0 5 1089 45 7715 3829 3.6 20 6 2 9 24% 3051 120863 20683 76%
c u  3.24 24 295 0 5 1089 45 7715 3785 3.6 20 6 2 9 24% 3052 120863 20683 76%
c v  3.27 24 295 0 5 1089 45 7715 3687 3.6 20 6 2 9 24% 3052 120863 20683 76%
c w  3.30 24 295 0 5 1089 45 7715 3679 3.6 20 6 2 9 24% 3052 120863 20683 76%
c x  3.37 24 295 0 5 1089 45 7715 3678 3.6 20 6 2 9 24% 3058 120309 20683 76%
c =  3.54 24 295 0 5 1089 45 7715 3678 3.6 20 6 2 9 24% 3230 120309 20597 75%
c d  3.55 24 295 0 5 1089 45 7715 3677 3.6 20 6 2 9 24% 3053 120309 20597 75%
c t  3.56 24 295 0 5 1089 45 7715 3677 3.6 20 6 2 9 24% 3032 120309 20597 75%
c f  3.61 24 295 0 5 1089 45 7715 3677 3.6 20 6 2 9 24% 3170 120102 20666 75%
c -  4.18 24 290 0 6 1274 44 9385 4650 3.7 21 6 2 9 25% 3196 120102 20666 75%
c o  4.31 24 281 0 6 1282 41 10004 5190 3.6 20 6 2 9 25% 3207 120102 20666 75%
c -  4.83 24 284 0 7 1451 41 11836 6059 3.6 21 6 2 8 25% 3263 120102 20666 75%
c s  5.11 24 285 0 7 1511 41 12520 6617 3.7 21 6 2 8 26% 3289 118852 20666 75%
c e  5.20 24 285 0 7 1511 41 12520 6617 3.7 21 6 2 8 26% 2624 119249 20260 74%
c s  5.21 24 285 0 7 1511 41 12520 6617 3.7 21 6 2 8 26% 2640 118821 20260 74%
c e  5.22 24 285 0 7 1511 41 12520 6617 3.7 21 6 2 8 26% 2520 118913 20207 74%
c ^  5.22 24 285 0 7 1511 41 12520 6617 3.7 21 6 2 8 26% 2520 118913 20207 74%
c -  5.89 24 275 0 8 1696 40 14481 7289 3.7 22 6 2 8 26% 2566 118911 20207 74%
c d  6.25 24 298 0 8 1776 39 15803 8467 3.7 22 6 2 8 26% 2557 118911 20193 74%
c u  6.30 24 298 0 8 1776 39 15803 7818 3.7 22 6 2 8 26% 2567 118911 20193 74%
c
c  seconds   switched    rate        size/glue tier1    binary          remaining
c         MB  reductions   conflicts       size  tier2     irredundant
c           level  restarts     redundant    glue   trail          variables
c
c v  6.36 24 298 0 8 1776 39 15803 6728 3.7 22 6 2 8 26% 2567 118911 20193 74%
c w  6.45 24 298 0 8 1776 39 15803 6724 3.7 22 6 2 8 26% 2567 118911 20193 74%
c x  6.50 24 298 0 8 1776 39 15803 6723 3.7 22 6 2 8 26% 2567 118289 20193 74%
c =  6.74 24 298 0 8 1776 39 15803 6723 3.7 22 6 2 8 26% 4619 118289 19167 70%
c d  6.76 24 298 0 8 1776 39 15803 6662 3.7 22 6 2 8 26% 2461 118289 19167 70%
c t  6.78 24 298 0 8 1776 39 15803 6662 3.7 22 6 2 8 26% 2417 118289 19167 70%
c f  6.84 24 298 0 8 1776 39 15803 6662 3.7 22 6 2 8 26% 2501 118104 19209 70%
c u  6.98 24 298 0 8 1776 39 15803 6467 3.7 22 6 2 8 26% 2503 118104 19208 70%
c v  7.02 24 298 0 8 1776 39 15803 6275 3.7 22 6 2 8 26% 2504 118104 19208 70%
c w  7.11 24 298 0 8 1776 39 15803 6252 3.7 22 6 2 8 26% 2504 118104 19208 70%
c x  7.17 24 298 0 8 1776 39 15803 6252 3.7 22 6 2 8 26% 2505 116182 19208 70%
c =  7.42 24 298 0 8 1776 39 15803 6252 3.7 22 6 2 8 26% 5667 116182 17627 64%
c d  7.43 24 298 0 8 1776 39 15803 6183 3.7 22 6 2 8 26% 2429 116182 17627 64%
c f  7.51 24 298 0 8 1776 39 15803 6183 3.7 22 6 2 8 26% 2433 116174 17629 64%
c -  7.95 24 297 0 9 1908 38 17310 6912 3.7 22 6 2 8 26% 2447 116174 17629 64%
c o  8.57 24 292 0 9 2145 37 20039 9260 3.7 21 6 2 8 25% 2504 116173 17629 64%
c -  8.70 24 291 0 10 2216 38 20310 8675 3.8 22 6 2 8 26% 2505 116173 17629 64%
c -  9.13 24 299 0 11 2406 36 23474 10386 3.7 21 6 2 7 25% 2533 116172 17629 64%
c s  9.47 24 294 0 11 2547 36 25036 11746 3.7 22 6 2 7 25% 2554 101939 17629 64%
c e  9.55 24 294 0 11 2547 36 25036 11746 3.7 22 6 2 7 25% 1722 103025 17145 63%
c
c  seconds   switched     rate         size/glue tier1    binary          remaining
c         MB   reductions   conflicts        size  tier2     irredundant
c           level   restarts      redundant    glue   trail          variables
c
c s  9.55 24 294 0 11 2547 36 25036 11746 3.7 22 6 2 7 25% 1755 102618 17145 63%
c e  9.56 24 294 0 11 2547 36 25036 11746 3.7 22 6 2 7 25% 1708 102679 17127 63%
c ^  9.56 24 294 0 11 2547 36 25036 11746 3.7 22 6 2 7 25% 1708 102679 17127 63%
c -  9.78 24 286 0 12 2673 35 26791 11455 3.6 21 6 2 7 25% 1722 102679 17127 63%
c d  9.84 24 285 0 12 2704 35 26940 11586 3.6 21 6 2 7 25% 1681 102677 17103 62%
c u  9.88 24 285 0 12 2704 35 26940 10509 3.6 21 6 2 7 25% 1691 102677 17103 62%
c v  9.92 24 285 0 12 2704 35 26940 9295 3.6 21 6 2 7 25% 1692 102677 17103 62%
c w  9.93 24 285 0 12 2704 35 26940 9284 3.6 21 6 2 7 25% 1692 102677 17103 62%
c x  9.96 24 285 0 12 2704 35 26940 9282 3.6 21 6 2 7 25% 1693 102639 17103 62%
c = 10.14 24 285 0 12 2704 35 26940 9282 3.6 21 6 2 7 25% 4203 102639 15848 58%
c d 10.15 24 285 0 12 2704 35 26940 9093 3.6 21 6 2 7 25% 1617 102639 15848 58%
c t 10.16 24 285 0 12 2704 35 26940 9093 3.6 21 6 2 7 25% 1594 102639 15848 58%
c f 10.22 24 285 0 12 2704 35 26940 9093 3.6 21 6 2 7 25% 1673 102430 15888 58%
c u 10.27 24 285 0 12 2704 35 26940 8799 3.6 21 6 2 7 25% 1673 102430 15888 58%
c v 10.29 24 285 0 12 2704 35 26940 8608 3.6 21 6 2 7 25% 1674 102430 15888 58%
c w 10.30 24 285 0 12 2704 35 26940 8603 3.6 21 6 2 7 25% 1674 102430 15888 58%
c = 10.46 24 285 0 12 2704 35 26940 8603 3.6 21 6 2 7 25% 2462 102430 15494 57%
c d 10.46 24 285 0 12 2704 35 26940 8591 3.6 21 6 2 7 25% 1670 102430 15494 57%
c f 10.50 24 285 0 12 2704 35 26940 8591 3.6 21 6 2 7 25% 1673 102421 15496 57%
c - 10.96 24 282 0 13 2912 34 30256 10615 3.5 20 6 2 7 25% 1699 102421 15496 57%
c
c  seconds   switched     rate         size/glue tier1    binary          remaining
c         MB   reductions   conflicts        size  tier2     irredundant
c           level   restarts      redundant    glue   trail          variables
c
c - 11.74 24 270 0 14 3273 33 33862 12711 3.4 20 6 2 7 25% 1736 102421 15496 57%
c - 12.44 24 268 0 15 3551 32 37603 14487 3.4 20 6 2 6 25% 1768 102421 15496 57%
c o 12.86 24 267 0 15 3701 32 40051 16642 3.3 20 6 2 6 24% 1800 102421 15496 57%
c d 13.28 24 262 0 15 3872 32 41267 17687 3.4 20 6 2 6 24% 1767 102421 15473 56%
c u 13.37 24 262 0 15 3872 32 41267 15979 3.4 20 6 2 6 24% 1781 102421 15473 56%
c v 13.44 24 262 0 15 3872 32 41267 15225 3.4 20 6 2 6 24% 1781 102421 15473 56%
c w 13.50 24 262 0 15 3872 32 41267 15225 3.4 20 6 2 6 24% 1781 102421 15473 56%
c x 13.55 25 262 0 15 3872 32 41267 15225 3.4 20 6 2 6 24% 1781 102416 15473 56%
c = 13.82 25 262 0 15 3872 32 41267 15225 3.4 20 6 2 6 24% 1905 102416 15411 56%
c d 13.83 25 262 0 15 3872 32 41267 15046 3.4 20 6 2 6 24% 1763 102416 15411 56%
c t 13.84 25 262 0 15 3872 32 41267 15046 3.4 20 6 2 6 24% 1755 102416 15411 56%
c f 13.87 25 262 0 15 3872 32 41267 15046 3.4 20 6 2 6 24% 1765 102391 15416 56%
c c 13.95 25 262 0 15 3872 32 41267 15006 3.4 20 6 2 6 24% 1807 102215 15392 56%
c d 13.96 25 262 0 15 3872 32 41267 15006 3.4 20 6 2 6 24% 1759 102215 15392 56%
c u 14.04 25 262 0 15 3872 32 41267 14381 3.4 20 6 2 6 24% 1761 102215 15392 56%
c v 14.12 25 262 0 15 3872 32 41267 13404 3.4 20 6 2 6 24% 1763 102215 15392 56%
c w 14.27 25 262 0 15 3872 32 41267 13402 3.4 20 6 2 6 24% 1763 102215 15392 56%
c = 14.56 25 262 0 15 3872 32 41267 13402 3.4 20 6 2 6 24% 1771 102215 15388 56%
c d 14.57 25 262 0 15 3872 32 41267 13395 3.4 20 6 2 6 24% 1761 102215 15387 56%
c t 14.58 25 262 0 15 3872 32 41267 13395 3.4 20 6 2 6 24% 1757 102215 15387 56%
c
c  seconds   switched     rate         size/glue tier1    binary          remaining
c         MB   reductions   conflicts        size  tier2     irredundant
c           level   restarts      redundant    glue   trail          variables
c
c f 14.60 25 262 0 15 3872 32 41267 13395 3.4 20 6 2 6 24% 1759 102210 15388 56%
c - 14.67 25 262 0 16 3892 32 41475 12358 3.4 20 6 2 6 24% 1759 102210 15388 56%
c - 15.89 25 254 0 17 4378 32 45475 14512 3.4 21 6 2 6 24% 1809 102210 15388 56%
c - 17.00 25 252 0 18 4795 31 49598 16622 3.4 21 6 2 6 24% 1849 102210 15388 56%
c s 17.39 25 247 0 18 4912 31 52137 18682 3.3 21 6 2 6 24% 1902 91211 15388 56%
c e 17.51 25 247 0 18 4912 31 52137 18682 3.3 21 6 2 6 24% 1522 91959 15090 55%
c s 17.52 25 247 0 18 4912 31 52137 18682 3.3 21 6 2 6 24% 1526 91684 15090 55%
c e 17.53 25 247 0 18 4912 31 52137 18682 3.3 21 6 2 6 24% 1433 91828 15044 55%
c ^ 17.53 25 247 0 18 4912 31 52137 18682 3.3 21 6 2 6 24% 1433 91828 15044 55%
c - 17.75 25 250 0 19 4992 30 53840 17411 3.3 21 6 2 5 24% 1476 91828 15044 55%
c - 18.95 25 242 0 20 5438 30 58199 19152 3.4 21 6 2 5 24% 1563 91828 15044 55%
c d 19.36 25 242 0 20 5575 30 58894 19694 3.4 22 6 2 5 24% 1491 91828 15008 55%
c u 19.48 25 242 0 20 5575 30 58894 16973 3.4 22 6 2 5 24% 1513 91828 15008 55%
c v 19.56 25 242 0 20 5575 30 58894 15473 3.4 22 6 2 5 24% 1519 91828 15008 55%
c w 19.76 25 242 0 20 5575 30 58894 15287 3.4 22 6 2 5 24% 1519 91828 15008 55%
c = 20.14 25 242 0 20 5575 30 58894 15287 3.4 22 6 2 5 24% 1637 91828 14949 55%
c d 20.15 25 242 0 20 5575 30 58894 15194 3.4 22 6 2 5 24% 1491 91828 14942 55%
c t 20.16 25 242 0 20 5575 30 58894 15194 3.4 22 6 2 5 24% 1486 91828 14942 55%
c f 20.20 25 242 0 20 5575 30 58894 15194 3.4 22 6 2 5 24% 1508 91741 14955 55%
c c 20.27 25 242 0 20 5575 30 58894 15109 3.4 22 6 2 5 24% 1596 91330 14905 54%
c
c  seconds   switched     rate         size/glue tier1    binary         remaining
c         MB   reductions   conflicts        size  tier2     irredundant
c           level   restarts      redundant    glue   trail         variables
c
c d 20.27 25 242 0 20 5575 30 58894 15109 3.4 22 6 2 5 24% 1496 91330 14905 54%
c u 20.36 25 242 0 20 5575 30 58894 14422 3.4 22 6 2 5 24% 1506 91330 14905 54%
c v 20.41 25 242 0 20 5575 30 58894 14155 3.4 22 6 2 5 24% 1507 91330 14905 54%
c w 20.56 25 242 0 20 5575 30 58894 14131 3.4 22 6 2 5 24% 1507 91330 14905 54%
c x 20.63 25 242 0 20 5575 30 58894 14130 3.4 22 6 2 5 24% 1509 91141 14905 54%
c = 20.91 25 242 0 20 5575 30 58894 14130 3.4 22 6 2 5 24% 2039 91141 14640 53%
c d 20.92 25 242 0 20 5575 30 58894 13859 3.4 22 6 2 5 24% 1443 91141 14639 53%
c t 20.93 25 242 0 20 5575 30 58894 13859 3.4 22 6 2 5 24% 1436 91141 14639 53%
c f 20.96 25 242 0 20 5575 30 58894 13859 3.4 22 6 2 5 24% 1438 91134 14640 53%
c - 22.22 25 238 0 21 6039 31 62671 16017 3.4 22 7 2 5 24% 1444 91134 14640 53%
c - 23.36 25 232 0 22 6434 30 67255 18465 3.4 22 7 2 5 24% 1485 91134 14640 53%
c o 24.14 25 228 0 22 6741 30 70497 21134 3.4 22 7 2 5 24% 1549 91134 14640 53%
c - 24.65 25 226 0 23 6950 30 71948 18232 3.4 23 7 1 5 24% 1557 91134 14640 53%
c - 26.28 25 221 0 24 7587 30 76745 19005 3.4 23 7 1 5 24% 1585 91134 14640 53%
c c 26.95 25 220 0 24 7805 30 79952 21646 3.4 23 7 1 5 24% 1705 90534 14543 53%
c d 26.96 25 220 0 24 7805 30 79952 21216 3.4 23 7 1 5 24% 1511 90534 14543 53%
c u 27.04 25 220 0 24 7805 30 79952 19530 3.4 23 7 1 5 24% 1527 90534 14543 53%
c v 27.16 25 220 0 24 7805 30 79952 16840 3.4 23 7 1 5 24% 1535 90534 14543 53%
c w 27.47 25 220 0 24 7805 30 79952 16670 3.4 23 7 1 5 24% 1535 90534 14543 53%
c = 27.96 25 220 0 24 7805 30 79952 16670 3.4 23 7 1 5 24% 2191 90532 14215 52%
c
c  seconds   switched     rate         size/glue tier1    binary         remaining
c         MB   reductions   conflicts        size  tier2     irredundant
c           level   restarts      redundant    glue   trail         variables
c
c d 27.97 25 220 0 24 7805 30 79952 16226 3.4 23 7 1 5 24% 1473 90532 14214 52%
c t 27.99 25 220 0 24 7805 30 79952 16226 3.4 23 7 1 5 24% 1469 90532 14214 52%
c f 28.02 25 220 0 24 7805 30 79952 16226 3.4 23 7 1 5 24% 1471 90525 14215 52%
c c 28.10 25 220 0 24 7805 30 79952 16226 3.4 23 7 1 5 24% 1473 90513 14213 52%
c d 28.10 25 220 0 24 7805 30 79952 16226 3.4 23 7 1 5 24% 1469 90513 14213 52%
c u 28.17 25 220 0 24 7805 30 79952 15719 3.4 23 7 1 5 24% 1471 90513 14213 52%
c v 28.25 25 220 0 24 7805 30 79952 15051 3.4 23 7 1 5 24% 1476 90513 14213 52%
c w 28.49 25 220 0 24 7805 30 79952 14823 3.4 23 7 1 5 24% 1477 90513 14213 52%
c x 28.57 25 220 0 24 7805 30 79952 14822 3.4 23 7 1 5 24% 1478 90404 14213 52%
c = 29.06 25 220 0 24 7805 30 79952 14822 3.4 23 7 1 5 24% 1776 90396 14064 51%
c d 29.07 25 220 0 24 7805 30 79952 14787 3.4 23 7 1 5 24% 1464 90396 14064 51%
c t 29.09 25 220 0 24 7805 30 79952 14787 3.4 23 7 1 5 24% 1457 90396 14064 51%
c - 29.46 25 218 0 25 7919 29 81645 14268 3.4 23 7 1 5 24% 1467 90396 14064 51%
c - 30.91 25 215 0 26 8452 29 86645 16360 3.4 24 7 1 5 24% 1485 90391 14064 51%
c - 32.34 25 209 0 27 9014 29 91747 18350 3.4 24 7 1 5 24% 1525 90391 14064 51%
c s 33.31 25 204 0 27 9372 28 95794 21857 3.4 24 7 1 5 24% 1551 85752 14064 51%
c e 33.43 25 204 0 27 9372 28 95794 21857 3.4 24 7 1 5 24% 1040 87294 13693 50%
c s 33.43 25 204 0 27 9372 28 95794 21857 3.4 24 7 1 5 24% 1049 86782 13693 50%
c e 33.45 25 204 0 27 9372 28 95794 21857 3.4 24 7 1 5 24% 1032 86831 13681 50%
c ^ 33.45 25 204 0 27 9372 28 95794 21857 3.4 24 7 1 5 24% 1032 86831 13681 50%
c
c  seconds   switched     rate         size/glue tier1    binary         remaining
c         MB   reductions   conflicts        size  tier2     irredundant
c           level   restarts      redundant    glue   trail         variables
c
c - 33.85 25 204 0 28 9518 28 96943 18222 3.4 24 7 1 5 24% 1036 86831 13681 50%
c - 34.88 25 200 0 29 9919 28 102234 19782 3.3 24 7 1 5 24% 1078 86831 13681 50%
c d 35.25 25 198 0 29 10054 27 104559 21709 3.3 23 7 1 5 24% 1063 86829 13664 50%
c u 35.34 25 198 0 29 10054 27 104559 19859 3.3 23 7 1 5 24% 1073 86829 13664 50%
c v 35.45 25 198 0 29 10054 27 104559 17226 3.3 23 7 1 5 24% 1080 86829 13664 50%
c w 35.58 25 198 0 29 10054 27 104559 17132 3.3 23 7 1 5 24% 1080 86829 13664 50%
c x 35.67 25 198 0 29 10054 27 104559 17125 3.3 23 7 1 5 24% 1085 85183 13664 50%
c = 36.14 25 198 0 29 10054 27 104559 17125 3.3 23 7 1 5 24% 1087 85183 13663 50%
c d 36.15 25 198 0 29 10054 27 104559 17122 3.3 23 7 1 5 24% 1078 85183 13660 50%
c t 36.16 25 198 0 29 10054 27 104559 17122 3.3 23 7 1 5 24% 1056 85183 13660 50%
c f 36.21 25 198 0 29 10054 27 104559 17122 3.3 23 7 1 5 24% 1058 85171 13661 50%
c c 36.28 25 198 0 29 10054 27 104559 17095 3.3 23 7 1 5 24% 1079 85091 13650 50%
c d 36.29 25 198 0 29 10054 27 104559 17095 3.3 23 7 1 5 24% 1059 85091 13650 50%
c u 36.36 25 198 0 29 10054 27 104559 16655 3.3 23 7 1 5 24% 1065 85091 13650 50%
c v 36.44 25 198 0 29 10054 27 104559 16080 3.3 23 7 1 5 24% 1067 85091 13650 50%
c w 36.61 25 198 0 29 10054 27 104559 15820 3.3 23 7 1 5 24% 1068 85091 13650 50%
c x 36.77 25 198 0 29 10054 27 104559 15807 3.3 23 7 1 5 24% 1081 84627 13650 50%
c d 37.23 25 198 0 29 10054 27 104559 15804 3.3 23 7 1 5 24% 1079 84627 13649 50%
c t 37.24 25 198 0 29 10054 27 104559 15804 3.3 23 7 1 5 24% 1064 84627 13649 50%
c - 38.19 25 196 0 30 10357 27 107620 16358 3.3 24 7 1 5 24% 1081 84625 13649 50%
c
c  seconds   switched      rate          size/glue tier1    binary         remaining
c         MB   reductions    conflicts         size  tier2     irredundant
c           level   restarts        redundant    glue   trail         variables
c
c o 38.57 25 194 0 30 10502 26 110987 19080 3.3 23 7 1 5 24% 1114 84625 13649 50%
c - 38.99 25 193 0 31 10632 26 113097 18465 3.3 23 7 1 5 24% 1129 84625 13649 50%
c - 40.25 25 191 0 32 11140 26 118665 20257 3.3 24 7 1 5 24% 1192 84625 13649 50%
c - 41.10 25 189 0 33 11590 26 124321 21689 3.3 24 7 1 5 24% 1231 84625 13649 50%
c - 41.95 25 186 0 34 12031 25 130065 22872 3.2 24 7 1 5 24% 1288 84624 13649 50%
c d 42.39 25 187 0 34 12256 25 132807 25098 3.3 24 7 1 4 25% 1143 84618 13563 50%
c u 42.45 25 187 0 34 12256 25 132807 22962 3.3 24 7 1 4 25% 1167 84618 13563 50%
c v 42.52 25 187 0 34 12256 25 132807 20087 3.3 24 7 1 4 25% 1182 84618 13563 50%
c w 42.74 25 187 0 34 12256 25 132807 19617 3.3 24 7 1 4 25% 1182 84618 13563 50%
c d 42.74 25 187 0 34 12256 25 132807 19590 3.3 24 7 1 4 25% 1154 84618 13549 49%
c u 42.82 25 187 0 34 12256 25 132807 18985 3.3 24 7 1 4 25% 1164 84618 13549 49%
c v 42.86 25 187 0 34 12256 25 132807 18372 3.3 24 7 1 4 25% 1169 84618 13549 49%
c w 43.02 25 187 0 34 12256 25 132807 17966 3.3 24 7 1 4 25% 1170 84618 13549 49%
c x 43.07 25 187 0 34 12256 25 132807 17964 3.3 24 7 1 4 25% 1174 84582 13549 49%
c d 43.43 25 187 0 34 12256 25 132807 17954 3.3 24 7 1 4 25% 1158 84582 13541 49%
c t 43.44 25 187 0 34 12256 25 132807 17954 3.3 24 7 1 4 25% 1153 84582 13541 49%
c - 43.99 25 185 0 35 12530 25 135895 18191 3.2 24 7 1 4 25% 1167 84582 13541 49%
c - 44.67 25 183 0 36 12875 24 141811 20530 3.2 24 7 1 4 25% 1221 84582 13541 49%
c - 45.30 25 180 0 37 13174 24 147812 22383 3.2 24 7 1 5 24% 1279 84580 13541 49%
c - 46.19 25 178 0 38 13667 23 153896 23869 3.2 24 7 1 5 25% 1332 84577 13541 49%
c
c  seconds   switched      rate          size/glue tier1    binary         remaining
c         MB   reductions    conflicts         size  tier2     irredundant
c           level   restarts        redundant    glue   trail         variables
c
c s 46.64 25 176 0 38 13855 23 157855 27412 3.1 24 7 1 5 25% 1355 84466 13541 49%
c e 46.76 25 176 0 38 13855 23 157855 27412 3.1 24 7 1 5 25% 925 96100 11936 44%
c s 46.78 25 176 0 38 13855 23 157855 27412 3.1 24 7 1 5 25% 927 93803 11936 44%
c e 46.81 25 176 0 38 13855 23 157855 27412 3.1 24 7 1 5 25% 904 94023 11879 43%
c ^ 46.81 25 176 0 38 13855 23 157855 27412 3.1 24 7 1 5 25% 904 94023 11879 43%
c - 47.36 27 176 0 39 14136 23 160060 19178 3.1 24 8 1 5 25% 909 94023 11879 43%
c o 47.45 27 176 0 39 14186 23 161000 19976 3.1 24 8 1 5 25% 917 94023 11879 43%
c c 48.17 27 175 0 39 14565 23 164784 23394 3.1 24 8 1 5 26% 999 93574 11829 43%
c d 48.17 27 175 0 39 14565 23 164784 23285 3.1 24 8 1 5 26% 899 93574 11829 43%
c u 48.22 27 175 0 39 14565 23 164784 21144 3.1 24 8 1 5 26% 908 93574 11829 43%
c v 48.30 27 175 0 39 14565 23 164784 18279 3.1 24 8 1 5 26% 914 93574 11829 43%
c w 48.59 27 175 0 39 14565 23 164784 18107 3.1 24 8 1 5 26% 914 93574 11829 43%
c d 48.60 27 175 0 39 14565 23 164784 18096 3.1 24 8 1 5 26% 904 93574 11824 43%
c t 48.60 27 175 0 39 14565 23 164784 18096 3.1 24 8 1 5 26% 893 93574 11824 43%
c f 48.70 27 175 0 39 14565 23 164784 18096 3.1 24 8 1 5 26% 897 93534 11826 43%
c b 48.71 27 175 0 39 14565 23 164784 18096 3.1 24 8 1 5 26% 897 93534 11825 43%
c u 48.75 27 175 0 39 14565 23 164784 17600 3.1 24 8 1 5 26% 897 93534 11825 43%
c v 48.79 27 175 0 39 14565 23 164784 16929 3.1 24 8 1 5 26% 897 93534 11825 43%
c w 49.11 27 175 0 39 14565 23 164784 16522 3.1 24 8 1 5 26% 897 93534 11825 43%
c - 49.31 27 174 0 40 14650 23 166306 15577 3.1 24 8 1 5 26% 899 93534 11825 43%
c
c  seconds   switched      rate          size/glue tier1   binary         remaining
c         MB   reductions    conflicts         size  tier2    irredundant
c           level   restarts        redundant    glue   trail        variables
c
c - 50.09 27 171 0 41 15037 22 172630 18605 3.1 24 8 1 5 26% 918 93534 11825 43%
c - 50.84 27 167 0 42 15427 22 179033 21004 3.0 23 8 1 5 25% 970 93533 11825 43%
c - 51.65 27 163 0 43 15830 21 185515 22635 3.0 23 8 1 5 26% 999 93532 11825 43%
c - 52.44 27 160 0 44 16186 21 192075 23796 2.9 23 8 1 5 26% 1031 93532 11825 43%
c - 53.39 28 156 0 45 16735 20 198710 25003 2.9 23 8 1 5 26% 1068 93531 11825 43%
c c 53.57 28 155 0 45 16788 20 200563 26463 2.9 23 8 1 5 26% 1126 93056 11749 43%
c d 53.58 28 155 0 45 16788 20 200563 26217 2.9 23 8 1 5 26% 974 93056 11749 43%
c u 53.64 28 155 0 45 16788 20 200563 24316 2.9 23 8 1 5 26% 980 93056 11749 43%
c v 53.74 28 155 0 45 16788 20 200563 20427 2.9 23 8 1 5 26% 983 93056 11749 43%
c w 53.81 28 155 0 45 16788 20 200563 20305 2.9 23 8 1 5 26% 983 93056 11749 43%
c x 53.91 28 155 0 45 16788 20 200563 20299 2.9 23 8 1 5 26% 1016 91551 11749 43%
c = 54.33 28 155 0 45 16788 20 200563 20299 2.9 23 8 1 5 26% 1020 91551 11747 43%
c d 54.34 28 155 0 45 16788 20 200563 20294 2.9 23 8 1 5 26% 1006 91551 11743 43%
c t 54.35 28 155 0 45 16788 20 200563 20294 2.9 23 8 1 5 26% 967 91551 11743 43%
c c 54.41 28 155 0 45 16788 20 200563 20287 2.9 23 8 1 5 26% 974 91541 11742 43%
c d 54.41 28 155 0 45 16788 20 200563 20287 2.9 23 8 1 5 26% 972 91541 11742 43%
c u 54.46 28 155 0 45 16788 20 200563 19742 2.9 23 8 1 5 26% 974 91541 11742 43%
c v 54.53 28 155 0 45 16788 20 200563 18905 2.9 23 8 1 5 26% 976 91541 11742 43%
c w 54.60 28 155 0 45 16788 20 200563 18499 2.9 23 8 1 5 26% 976 91541 11742 43%
c d 54.60 28 155 0 45 16788 20 200563 18496 2.9 23 8 1 5 26% 970 91541 11739 43%
c
c  seconds   switched      rate          size/glue tier1   binary         remaining
c         MB   reductions    conflicts         size  tier2    irredundant
c           level   restarts        redundant    glue   trail        variables
c
c t 54.61 28 155 0 45 16788 20 200563 18496 2.9 23 8 1 5 26% 965 91541 11739 43%
c - 55.37 28 153 0 46 17204 20 205418 19866 2.9 23 8 1 5 26% 969 91541 11739 43%
c - 56.12 28 152 0 47 17588 20 212200 22421 2.9 22 8 1 5 26% 1001 91541 11739 43%
c - 57.00 28 150 0 48 18065 19 219056 24181 2.9 22 8 1 5 25% 1035 91540 11739 43%
c o 57.23 28 145 0 48 18163 19 223390 27992 2.8 22 8 1 5 25% 1049 91536 11739 43%
c - 57.57 28 145 0 49 18348 19 225984 25493 2.8 22 8 1 5 25% 1078 91536 11739 43%
c - 58.72 28 143 0 50 18987 19 232985 26653 2.8 22 8 1 5 25% 1100 91535 11739 43%
c s 59.70 28 141 0 50 19514 18 239962 33171 2.8 22 8 1 5 25% 1124 91242 11739 43%
c e 59.87 28 141 0 50 19514 18 239962 33171 2.8 22 8 1 5 25% 863 107560 10515 38%
c s 59.90 28 141 0 50 19514 18 239962 33171 2.8 22 8 1 5 25% 863 102548 10515 38%
c e 59.96 28 141 0 50 19514 18 239962 33171 2.8 22 8 1 5 25% 848 102878 10482 38%
c ! 59.96 28 141 0 50 19514 18 239962 33171 2.8 22 8 1 5 25% 848 102878 10482 38%
c - 59.99 28 141 0 51 19516 18 240056 20581 2.8 22 8 1 5 25% 848 102878 10482 38%
c u 60.07 28 141 0 51 19516 18 240224 18534 2.8 22 8 1 5 25% 860 102878 10482 38%
c v 60.15 28 141 0 51 19516 18 240224 15533 2.8 22 8 1 5 25% 863 102878 10482 38%
c w 60.18 28 141 0 51 19516 18 240224 15365 2.8 22 8 1 5 25% 863 102878 10482 38%
c x 60.31 28 141 0 51 19516 18 240224 15294 2.8 22 8 1 5 25% 895 102334 10482 38%
c = 60.82 28 141 0 51 19516 18 240224 15294 2.8 22 8 1 5 25% 923 102326 10468 38%
c d 60.83 28 141 0 51 19516 18 240224 15272 2.8 22 8 1 5 25% 887 102326 10468 38%
c t 60.84 28 141 0 51 19516 18 240224 15272 2.8 22 8 1 5 25% 833 102326 10468 38%
c
c  seconds   switched      rate          size/glue tier1   binary          remaining
c         MB   reductions    conflicts         size  tier2    irredundant
c           level   restarts        redundant    glue   trail         variables
c
c f 60.96 28 141 0 51 19516 18 240224 15272 2.8 22 8 1 5 25% 843 102220 10473 38%
c c 61.00 28 141 0 51 19516 18 240224 15271 2.8 22 8 1 5 25% 849 102212 10472 38%
c d 61.01 28 141 0 51 19516 18 240224 15271 2.8 22 8 1 5 25% 847 102212 10472 38%
c u 61.06 28 141 0 51 19516 18 240224 15055 2.8 22 8 1 5 25% 847 102212 10472 38%
c v 61.11 28 141 0 51 19516 18 240224 14555 2.8 22 8 1 5 25% 848 102212 10472 38%
c w 61.13 28 141 0 51 19516 18 240224 14487 2.8 22 8 1 5 25% 848 102212 10472 38%
c x 61.33 28 141 0 51 19516 18 240224 14376 2.8 22 8 1 5 25% 867 98972 10472 38%
c = 61.83 28 141 0 51 19516 18 240224 14376 2.8 22 8 1 5 25% 881 98919 10461 38%
c d 61.84 28 141 0 51 19516 18 240224 14366 2.8 22 8 1 5 25% 866 98919 10461 38%
c t 61.85 28 141 0 51 19516 18 240224 14366 2.8 22 8 1 5 25% 846 98919 10461 38%
c - 62.62 28 138 0 52 19865 18 247197 17884 2.8 22 8 1 5 25% 848 98916 10461 38%
c - 63.51 28 136 0 53 20331 18 254408 21088 2.7 21 8 1 5 25% 863 98912 10461 38%
c - 64.48 28 134 0 54 20879 17 261688 23174 2.7 21 8 1 5 25% 871 98908 10461 38%
c - 65.37 28 133 0 55 21334 17 269036 24894 2.6 21 8 1 5 25% 889 98905 10461 38%
c - 66.27 28 130 0 56 21848 17 276459 26202 2.6 21 8 1 5 25% 895 98904 10461 38%
c d 67.62 28 128 0 56 22361 17 283852 32907 2.6 21 8 1 5 25% 907 98900 10459 38%
c u 67.76 28 128 0 56 22361 17 283852 30928 2.6 21 8 1 5 25% 911 98900 10459 38%
c v 68.00 28 128 0 56 22361 17 283852 27659 2.6 21 8 1 5 25% 913 98900 10459 38%
c w 68.11 28 128 0 56 22361 17 283852 27632 2.6 21 8 1 5 25% 913 98900 10459 38%
c x 68.26 28 128 0 56 22361 17 283852 27600 2.6 21 8 1 5 25% 913 98891 10459 38%
c
c  seconds   switched      rate          size/glue tier1   binary         remaining
c         MB   reductions    conflicts         size  tier2    irredundant
c           level   restarts        redundant    glue   trail        variables
c
c = 69.04 28 128 0 56 22361 17 283852 27600 2.6 21 8 1 5 25% 923 98798 10448 38%
c d 69.05 28 128 0 56 22361 17 283852 27514 2.6 21 8 1 5 25% 914 98798 10448 38%
c t 69.07 28 128 0 56 22361 17 283852 27514 2.6 21 8 1 5 25% 913 98798 10448 38%
c u 69.23 28 128 0 56 22361 17 283852 27137 2.6 21 8 1 5 25% 934 98798 10444 38%
c v 69.47 28 128 0 56 22361 17 283852 24097 2.6 21 8 1 5 25% 940 98798 10443 38%
c w 69.84 28 128 0 56 22361 17 283852 23814 2.6 21 8 1 5 25% 938 98798 10443 38%
c d 70.64 28 128 0 56 22361 17 283852 23792 2.6 21 8 1 5 25% 932 98749 10439 38%
c d 70.64 28 128 0 56 22361 17 283852 23792 2.6 21 8 1 5 25% 930 98749 10438 38%
c t 70.65 28 128 0 56 22361 17 283852 23792 2.6 21 8 1 5 25% 927 98749 10438 38%
c i 70.68 28 128 0 56 22361 17 283852 23792 2.6 21 8 1 5 25% 927 98749 10438 38%
c - 70.72 28 128 0 57 22374 17 283942 19728 2.6 21 8 1 5 25% 914 98749 10438 38%
c i 70.95 28 128 0 57 22475 17 285282 20936 2.6 21 8 1 5 25% 919 98749 10437 38%
c i 71.00 28 128 0 57 22493 17 285570 21185 2.6 21 8 1 5 25% 925 98749 10436 38%
c i 71.14 28 127 0 57 22525 17 286456 21987 2.6 21 8 1 5 25% 931 98749 10435 38%
c i 71.54 28 127 0 57 22640 16 288902 24228 2.6 20 8 1 5 25% 936 98749 10420 38%
c i 71.59 28 127 0 57 22658 16 289223 24493 2.6 20 8 1 5 25% 940 98749 10415 38%
c i 71.63 28 127 0 57 22667 16 289497 24742 2.6 20 8 1 5 25% 941 98749 10414 38%
c i 71.82 28 126 0 57 22763 16 291346 26414 2.6 20 8 1 5 25% 950 98749 10413 38%
c - 71.84 28 126 0 58 22767 16 291491 21731 2.6 20 8 1 5 25% 912 98749 10413 38%
c o 72.08 28 126 0 58 22882 16 293479 23534 2.5 20 8 1 5 25% 919 98749 10413 38%
c
c  seconds   switched      rate          size/glue tier1   binary         remaining
c         MB   reductions    conflicts         size  tier2    irredundant
c           level   restarts        redundant    glue   trail        variables
c
c - 73.02 28 124 0 59 23397 16 299106 23961 2.5 20 8 1 5 24% 940 98747 10413 38%
c i 73.47 28 123 0 59 23643 16 301720 26445 2.5 20 8 1 5 24% 945 98747 10412 38%
c i 73.49 28 123 0 59 23654 16 301823 26543 2.5 20 8 1 5 24% 945 98747 10409 38%
c i 73.54 28 123 0 59 23700 16 302637 27248 2.5 20 8 1 5 24% 953 98743 10408 38%
c i 73.54 28 123 0 59 23700 16 302638 27247 2.5 20 8 1 5 24% 953 98743 10407 38%
c i 73.55 28 122 0 59 23700 16 302758 27321 2.5 20 8 1 5 24% 958 98740 10401 38%
c i 73.55 28 122 0 59 23700 16 302764 27321 2.5 20 8 1 5 24% 961 98739 10400 38%
c i 73.55 28 122 0 59 23700 16 302794 27339 2.5 20 8 1 5 24% 963 98738 10395 38%
c } 73.55 28 122 0 59 23700 16 302810 27341 2.5 20 8 1 5 24% 968 98737 10381 38%
c 0 73.55 28 122 0 59 23700 16 302810 27341 2.5 20 8 1 5 24% 968 98737 10381 38%
c
c ---- [ result ] ------------------------------------------------------------
c
s UNSATISFIABLE
c
c ---- [ profiling ] ---------------------------------------------------------
c
c          53.48   72.71 %  search
c          53.48   72.71 %  focused
c          19.56   26.60 %  simplify
c          18.71   25.44 %  probe
c           7.99   10.87 %  vivify
c           7.79   10.59 %  sweep
c           1.12    1.52 %  factor
c           1.06    1.45 %  eliminate
c           0.82    1.12 %  substitute
c           0.78    1.06 %  congruence
c           0.46    0.63 %  preprocess
c           0.36    0.49 %  reduce
c           0.24    0.33 %  fastel
c           0.18    0.25 %  subsume
c           0.13    0.18 %  transitive
c           0.08    0.11 %  backbone
c           0.03    0.03 %  lucky
c           0.02    0.03 %  parse
c =============================================
c          73.55  100.00 %  total
c
c ---- [ statistics ] --------------------------------------------------------
c
c chronological:                         8891                3 %  conflicts
c conflicts:                           302810             4117.26 per second
c congruent:                              565                2 %  variables
c decisions:                          5814089               19.20 per conflict
c eliminated:                           14632               53 %  variables
c factored:                              4069               15 %  variables
c fast_eliminated:                      10025               69 %  eliminated
c fast_strengthened:                      142                1 %  per strengthened
c fast_subsumed:                           94                0 %  per subsumed
c iterations:                              15                0 %  variables
c propagations:                     216137086          2938782    per second
c reductions:                              59             5132    interval
c reordered:                                8            37851    interval
c restarts:                             23700               13    interval
c strengthened:                         10855                0 %  checks
c substituted:                           6366               23 %  variables
c subsumed:                             40472                1 %  checks
c switched:                                 0                0    interval
c vivified:                             99308               12 %  checks
c
c ---- [ glue usage ] --------------------------------------------------------
c
c focused glue 1 used 515304 clauses 58.91% accumulated 58.91% tier1
c focused glue 2 used 165694 clauses 18.94% accumulated 77.86%
c focused glue 3 used  61473 clauses  7.03% accumulated 84.88%
c focused glue 4 used  33890 clauses  3.87% accumulated 88.76%
c focused glue 5 used  22195 clauses  2.54% accumulated 91.30% tier2
c
c ---- [ resources ] ---------------------------------------------------------
c
c maximum-resident-set-size:         29360128 bytes         28 MB
c process-time:                         1m 14s              73.55 seconds
c
c ---- [ shutting down ] -----------------------------------------------------
c
c exit 20
